p cnf 100 20
x 3 7 8 -10 -12 15 -19 -21 22 -26 27 28 30 -32 34 35 -36 41 -42 44 46 47 -48 -49 -50 51 55 56 -58 59 -61 -65 -67 -68 -69 -71 -75 76 -80 -85 -86 -87 88 -89 -90 -93 -97 99 -100 0
x 2 4 5 8 9 -11 13 -14 -16 -17 -18 19 -20 -21 22 24 -26 -27 -28 29 -31 -33 -35 -37 38 40 46 -48 -50 -52 -55 58 -59 -60 -62 63 66 67 -68 -70 71 -72 74 -75 76 77 -78 -79 81 -82 83 -85 -86 89 90 91 92 93 -94 95 -100 0
x -3 4 -5 -6 13 14 17 19 20 -21 22 27 30 33 34 -35 44 46 -47 -49 50 51 -52 53 -61 -67 -71 -72 75 79 -81 82 -83 85 86 -87 -92 98 100 0
x -1 3 5 -6 -8 -9 -10 14 -15 16 -17 18 20 23 -24 -26 -27 -28 29 -30 31 -32 -34 -35 36 -38 -39 42 46 -48 -49 -50 51 52 -53 -55 59 -60 61 -62 -65 66 68 69 71 -72 75 76 -78 -79 80 85 91 -92 93 96 97 99 -100 0
x 1 2 -3 -4 5 -6 9 -11 12 13 17 -18 19 -20 22 -25 -27 28 -30 32 34 -39 40 41 -48 50 53 57 -60 61 -63 -65 -67 -69 -70 -72 -73 75 79 -80 81 -84 -85 -86 87 -88 89 91 93 -94 -97 100 0
x -1 3 -7 -8 -12 14 15 16 18 21 24 26 30 32 35 37 39 41 -42 -43 -46 47 50 -51 -53 -58 61 -62 -64 -67 69 71 -72 74 -75 76 -78 83 86 -87 -88 90 -92 93 -94 -95 -96 98 0
x -5 6 8 -10 14 16 -18 19 -22 -23 -26 -29 30 31 -33 34 35 36 38 -39 -40 44 45 46 -47 -48 -49 51 52 -53 -57 -62 63 -64 -66 -68 -69 70 -71 -72 74 75 81 -82 -84 85 -93 -96 0
x 5 -7 8 -10 11 -12 -13 14 16 20 21 -22 -27 28 29 -32 -34 -37 -38 -39 -41 45 48 -49 50 52 53 -55 -56 -57 58 -59 -60 -62 -64 -66 -73 78 -80 82 -83 84 87 90 91 -94 -97 98 99 0
x 2 4 -6 -8 -14 15 -16 -19 23 -25 -26 29 31 32 38 -40 -41 -42 45 -46 -47 49 50 51 52 -53 54 55 57 58 60 61 -64 -65 68 -71 -72 74 75 -76 77 81 84 86 87 89 -92 -99 0
x -1 -3 -7 -12 13 15 17 18 20 21 23 24 25 -26 28 -29 30 33 35 -40 -41 47 52 53 55 57 58 -60 -67 71 -72 73 74 75 -77 78 79 -80 83 84 85 -86 87 88 90 91 -92 94 -96 -97 -98 -99 100 0
x 1 -2 -3 -4 5 -8 9 10 -11 12 -17 -19 21 22 24 25 -26 27 28 -34 -35 -36 43 46 48 49 -51 52 -53 -54 -55 57 58 -60 -64 -66 -67 -69 70 71 -72 -73 -74 75 -76 77 78 80 -81 83 87 92 -93 96 -98 100 0
x -2 4 5 -12 -13 -14 -17 18 19 -26 -27 -32 -33 37 38 39 40 -41 42 45 -46 48 49 -50 -51 -52 57 -58 -60 -66 67 -68 69 72 75 77 78 -80 81 -82 -83 84 85 86 -87 -88 -89 91 95 -96 98 -99 100 0
x 2 -4 5 6 -8 -10 -11 13 -14 -15 -16 19 21 -25 27 -29 -32 37 -42 -43 45 -46 -47 -49 -50 53 57 -59 62 -66 -69 -71 -72 73 74 -75 -80 -82 85 -87 -88 89 91 92 -93 -94 95 -98 99 -100 0
x -3 -4 6 7 -9 12 -13 -14 -16 17 -20 -25 -27 28 31 -32 35 36 37 38 39 -40 43 -46 -47 -50 51 57 59 61 -64 -65 66 69 -70 -71 72 -75 -76 77 79 -81 84 -85 86 -87 -88 89 -90 -91 93 -94 -96 99 100 0
x -2 3 6 7 9 14 15 16 -18 24 -25 27 30 -32 35 -36 37 38 40 -41 43 45 48 49 -51 -52 53 54 55 56 -57 58 -59 62 63 66 -68 -69 71 -72 75 -76 78 -79 80 -81 -84 -85 -89 -90 -97 -98 0
x 3 -4 5 -7 9 13 -15 -16 -17 18 19 -20 -21 -22 -23 -31 36 -37 -42 43 47 48 53 -55 -61 62 -63 -68 -71 -73 -75 77 -78 79 80 82 83 -84 -86 -87 89 91 -93 -94 95 -96 97 98 99 100 0
x 5 -11 -14 15 17 21 22 23 -24 26 27 -28 -30 -31 33 -34 36 -37 -39 -40 -43 -44 -47 49 -50 51 -52 57 62 -63 67 69 -73 77 78 -79 81 83 84 -86 -93 94 -96 97 98 -99 -100 0
x -1 -2 -4 -5 6 8 -10 11 -12 -13 14 -15 16 17 19 20 -21 -22 29 31 32 33 -36 37 39 -41 -43 45 46 -48 -53 -54 55 -56 58 59 60 -61 -62 64 -65 66 -68 -70 -71 -75 76 77 81 -82 -84 -85 87 -88 91 93 94 95 -98 -99 0
x -2 -5 7 -13 -14 15 -16 -17 18 19 -28 -31 -32 33 34 -38 42 -43 -44 -45 55 56 58 62 -64 -65 -67 -68 69 70 -71 -73 -75 -76 -78 -79 80 -82 84 85 -87 -89 -91 93 -94 -95 96 100 0
x -2 3 5 -8 -9 11 -12 -13 14 -16 22 23 -24 -26 -27 28 -29 -31 -32 -33 -36 37 39 40 -43 -44 -47 49 -50 -54 57 -58 -62 63 66 -67 -68 -70 -71 -74 75 83 -85 86 -87 -88 -89 91 -97 98 0
g -20